NAME : single.6233.tour
COMMENT : Length = 6233
COMMENT : Found by LKH [Keld Helsgaun] Tue Apr 26 00:40:14 2022
TYPE : TOUR
DIMENSION : 56
TOUR_SECTION
1
45
47
49
52
51
23
29
44
43
42
41
27
28
26
30
46
48
50
53
54
55
56
4
5
12
7
39
11
40
6
38
3
37
21
2
9
10
8
16
15
14
13
36
35
33
34
25
24
22
31
17
18
20
19
32
-1
EOF
